SPARKNaCl/why3-z3/sparknacl-hashing-rfsb509.adb_94_12_loop_invariant_init_1.smt2
;; produced by z3_gnatprove.drv ;;
(set-info :smt-lib-version 2.5)
(set-info :source |VC generated by SPARK 2014|)
(set-info :category industrial)
(set-info :status unknown)
;;; generated by SMT-LIB2 driver
;;; SMT-LIB2 driver: bit-vectors, common part
;;; SMT-LIB2: integer arithmetic
(declare-datatypes ()
  ((int__ref (int__refqtmk (int__content Int)))))

(declare-datatypes ()
  ((t__ref (t__refqtmk (t__content (_ BitVec 8))))))

(declare-sort byte 0)

(declare-datatypes ()
  ((byte__init_wrapper
   (byte__init_wrapperqtmk (rec__value byte)(us_attr__init Bool)))))

(declare-sort map1 0)

(declare-datatypes ()
  ((map__ref (map__refqtmk (map__content map1)))))

;; "has_bounds"
(declare-fun has_bounds (map1
  Int
  Int) Bool)

;; "get"
(declare-fun get (map1
  Int) byte__init_wrapper)

;; "slide"
(declare-fun slide (map1
  Int
  Int) map1)

;; "slide_eq"
(assert
  (forall ((a map1) (first Int))
    (! (= (slide a first first) a) :pattern ((slide a first first)) )))

;; "slide_def"
(assert
  (forall ((a map1) (old_first Int) (new_first Int))
    (! (and
         (forall ((i Int))
           (! (= (get (slide a old_first new_first) i) (get
                                                         a
                                                         (- i (- new_first old_first)))) :pattern (
           (get
             (slide a old_first new_first)
             i)) ))
         (forall ((new_last Int))
           (! (=>
                (has_bounds a old_first (- new_last (- new_first old_first)))
                (has_bounds (slide a old_first new_first) new_first new_last)) :pattern (
           (has_bounds
             (slide a old_first new_first)
             new_first
             new_last)) ))) :pattern ((slide a old_first new_first)) )))

;; "slice"
(declare-fun slice (map1
  Int
  Int) map1)

;; "slice_eq"
(assert
  (forall ((a map1) (f Int) (l Int))
    (! (=> (has_bounds a f l) (= (slice a f l) a)) :pattern ((slice a f l)
    (has_bounds a f l)) )))

;; "slice_slice"
(assert
  (forall ((a map1) (f1 Int) (l1 Int) (f2 Int) (l2 Int))
    (! (=>
         (and (<= f1 f2) (<= l2 l1))
         (= (slice (slice a f1 l1) f2 l2) (slice a f2 l2))) :pattern (
    (slice
      (slice a f1 l1)
      f2
      l2)) )))

;; "slice_def"
(assert
  (forall ((a map1) (f Int) (l Int))
    (! (forall ((i Int))
         (! (=> (and (<= f i) (<= i l)) (= (get (slice a f l) i) (get a i))) :pattern (
         (get
           (slice a f l)
           i)) :pattern ((get a i)) )) :pattern ((slice a f l)) )))

;; "slice_has_bounds"
(assert
  (forall ((a map1) (f Int) (l Int))
    (! (has_bounds (slice a f l) f l) :pattern ((has_bounds
                                                  (slice a f l)
                                                  f
                                                  l)) )))

(declare-const word (_ BitVec 8))

(declare-const five_lsb_mask (_ BitVec 8))

;; "to_rep"
(declare-fun to_rep (byte) (_ BitVec 8))

;; "of_rep"
(declare-fun of_rep ((_ BitVec 8)) byte)

;; "inversion_axiom"
(assert
  (forall ((x byte)) (! (= (of_rep (to_rep x)) x) :pattern ((to_rep x)) )))

;; "range_axiom"
(assert true)

;; "coerce_axiom"
(assert
  (forall ((x (_ BitVec 8)))
    (! (= (to_rep (of_rep x)) x) :pattern ((to_rep (of_rep x))) )))

(declare-sort map2 0)

(declare-datatypes ()
  ((map__ref1 (map__refqtmk1 (map__content1 map2)))))

;; "has_bounds"
(declare-fun has_bounds1 (map2
  Int
  Int) Bool)

;; "get"
(declare-fun get1 (map2
  Int) byte)

;; "set"
(declare-fun set (map2
  Int
  byte) map2)

;; "set_eq"
(assert
  (forall ((a map2) (i Int) (v byte))
    (! (= (get1 (set a i v) i) v) :pattern ((set a i v)) )))

;; "set_neq"
(assert
  (forall ((a map2) (i Int) (v byte))
    (! (forall ((j Int))
         (! (=> (not (= i j)) (= (get1 (set a i v) j) (get1 a j))) :pattern (
         (get1
           a
           j)) :pattern ((get1 (set a i v) j)) )) :pattern ((set a i v)) )))

;; "set_has_bounds"
(assert
  (forall ((a map2) (i Int) (f Int) (l Int) (v byte))
    (! (=>
         (and (<= f i) (<= i l))
         (=> (has_bounds1 a f l) (has_bounds1 (set a i v) f l))) :pattern (
    (has_bounds1
      (set a i v)
      f
      l)) )))

;; "slide"
(declare-fun slide1 (map2
  Int
  Int) map2)

;; "slide_eq"
(assert
  (forall ((a map2) (first Int))
    (! (= (slide1 a first first) a) :pattern ((slide1 a first first)) )))

;; "slide_def"
(assert
  (forall ((a map2) (old_first Int) (new_first Int))
    (! (and
         (forall ((i Int))
           (! (= (get1 (slide1 a old_first new_first) i) (get1
                                                           a
                                                           (- i (- new_first old_first)))) :pattern (
           (get1
             (slide1 a old_first new_first)
             i)) ))
         (forall ((new_last Int))
           (! (=>
                (has_bounds1
                  a
                  old_first
                  (- new_last (- new_first old_first)))
                (has_bounds1
                  (slide1 a old_first new_first)
                  new_first
                  new_last)) :pattern ((has_bounds1
                                         (slide1 a old_first new_first)
                                         new_first
                                         new_last)) ))) :pattern ((slide1
                                                                    a
                                                                    old_first
                                                                    new_first)) )))

;; "convert"
(declare-fun convert (map1) map2)

;; "convert__def"
(assert
  (forall ((a map1))
    (forall ((temp___169 Int))
      (= (to_rep (of_rep (to_rep (rec__value (get a temp___169))))) (to_rep
                                                                    (get1
                                                                    (convert
                                                                    a)
                                                                    temp___169))))))

;; "convert"
(declare-fun convert1 (map2) map1)

;; "convert__def"
(assert
  (forall ((a map2))
    (let ((b (convert1 a)))
      (forall ((temp___170 Int))
        (and
          (= (us_attr__init
               (byte__init_wrapperqtmk
                 (of_rep (to_rep (get1 a temp___170)))
                 true)) (us_attr__init (get b temp___170)))
          (= (to_rep
               (rec__value
                 (byte__init_wrapperqtmk
                   (of_rep (to_rep (get1 a temp___170)))
                   true))) (to_rep (rec__value (get b temp___170)))))))))

(declare-sort tinteger_32B 0)

;; "tinteger_32B'int"
(declare-fun tinteger_32Bqtint (tinteger_32B) Int)

;; "tinteger_32B'axiom"
(assert
  (forall ((i tinteger_32B))
    (and
      (<= (- 2147483648) (tinteger_32Bqtint i))
      (<= (tinteger_32Bqtint i) 2147483647))))

;; "in_range"
(define-fun in_range ((x Int)) Bool
  (and (<= (- 2147483648) x) (<= x 2147483647)))

;; "to_rep"
(define-fun to_rep1 ((x tinteger_32B)) Int
  (tinteger_32Bqtint x))

;; "of_rep"
(declare-fun of_rep1 (Int) tinteger_32B)

;; "inversion_axiom"
(assert
  (forall ((x tinteger_32B))
    (! (= (of_rep1 (to_rep1 x)) x) :pattern ((to_rep1 x)) )))

;; "range_axiom"
(assert
  (forall ((x tinteger_32B))
    (! (in_range (to_rep1 x)) :pattern ((to_rep1 x)) )))

;; "coerce_axiom"
(assert
  (forall ((x Int))
    (! (=> (in_range x) (= (to_rep1 (of_rep1 x)) x)) :pattern ((to_rep1
                                                                 (of_rep1 x))) )))

(declare-datatypes ()
  ((t (tqtmk (rec__first tinteger_32B)(rec__last tinteger_32B)))))

;; "mk"
(declare-fun mk (Int
  Int) t)

;; "mk_def"
(assert
  (forall ((f Int) (l Int))
    (! (=>
         (in_range f)
         (=>
           (in_range l)
           (and
             (= (to_rep1 (rec__first (mk f l))) f)
             (= (to_rep1 (rec__last (mk f l))) l)))) :pattern ((mk f l)) )))

(declare-datatypes ()
  ((us_t (us_tqtmk (elts map1)(rt t)))))

;; "to_array"
(define-fun to_array ((a us_t)) map1
  (elts a))

;; "of_array"
(define-fun of_array ((a map1) (f Int) (l Int)) us_t
  (us_tqtmk a (mk f l)))

;; "first"
(define-fun first ((a us_t)) Int
  (to_rep1 (rec__first (rt a))))

;; "last"
(define-fun last ((a us_t)) Int
  (to_rep1 (rec__last (rt a))))

;; "ada___ada___sparknacl__hashing__rfsb509__calculate_column__cipher_input__aggregate_def"
(declare-fun ada___ada___sparknacl__hashing__rfsb509__calculate_column__cipher_input__aggregate_def ((_ BitVec 8)) map2)

(declare-const column map1)

(declare-const first_byte (_ BitVec 8))

(declare-const last_byte (_ BitVec 8))

;; "last_byte'unused"
(define-fun last_byteqtunused () t__ref
  (t__refqtmk last_byte))

;; "first_byte'unused"
(define-fun first_byteqtunused () t__ref
  (t__refqtmk first_byte))

;; "column'unused"
(define-fun columnqtunused () map__ref
  (map__refqtmk column))

;; "Assume"
(assert (has_bounds column 0 63))

;; "Assume"
(assert true)

;; "Assume"
(assert true)

;; "ada___ada___sparknacl__hashing__rfsb509__calculate_column__five_lsb_mask__assume'unused"
(define-fun ada___ada___sparknacl__hashing__rfsb509__calculate_column__five_lsb_mask__assumeqtunused 
  () (_ BitVec 8)
  #x1F)

;; "Assume"
(assert (= #x1F five_lsb_mask))

;; "Assume"
(assert true)

;; "Assume"
(assert true)

;; "Assume"
(assert true)

;; "Assume"
(assert true)

;; "Assume"
(assert true)

(declare-const temp___700 map2)

;; "H"
(assert (has_bounds1 temp___700 0 15))

;; "H"
(assert
  (forall ((temp___699 Int))
    (! (=>
         (and (<= 0 temp___699) (<= temp___699 15))
         (= (to_rep (get1 temp___700 temp___699)) #x00)) :pattern ((get1
                                                                    temp___700
                                                                    temp___699)) )))

;; "H"
(assert
  (= temp___700 (ada___ada___sparknacl__hashing__rfsb509__calculate_column__cipher_input__aggregate_def
                  #x00)))

;; "ada___ada___sparknacl__hashing__rfsb509__calculate_column__cipher_input__aggregate_def'result'unused"
(define-fun ada___ada___sparknacl__hashing__rfsb509__calculate_column__cipher_input__aggregate_defqtresultqtunused 
  () map2
  temp___700)

(declare-const cipher_input map2)

;; "cipher_input'unused"
(define-fun cipher_inputqtunused () map__ref1
  (map__refqtmk1 cipher_input))

;; "H"
(assert (= cipher_input temp___700))

;; "Assume"
(assert (has_bounds1 cipher_input 0 15))

(declare-const o byte)

;; "Ensures"
(assert (= (to_rep o) word))

;; "of_rep'result'unused"
(define-fun of_repqtresultqtunused () byte
  o)

;; "map__content'result'unused"
(define-fun map__contentqtresultqtunused () map2
  cipher_input)

;; "o"
(define-fun o1 () map2
  (set cipher_input 1 o))

;; "set'result'unused"
(define-fun setqtresultqtunused () map2
  o1)

(declare-const cipher_input1 map2)

;; "cipher_input'unused"
(define-fun cipher_inputqtunused1 () map__ref1
  (map__refqtmk1 cipher_input1))

;; "H"
(assert (= cipher_input1 o1))

(declare-const i Int)

;; "i'unused"
(define-fun iqtunused () int__ref
  (int__refqtmk i))

;; "H"
(assert (= i 0))

;; "int__content'result'unused"
(define-fun int__contentqtresultqtunused () Int
  i)

;; "o"
(define-fun o2 () Bool
  (ite (<= i 3) true false))

;; "infix <='result'unused"
(define-fun infix_lseqqtresultqtunused () Bool
  o2)

;; "int__content'result'unused"
(define-fun int__contentqtresultqtunused1 () Int
  i)

;; "o"
(define-fun o3 () Bool
  (ite (<= 0 i) true false))

;; "infix <='result'unused"
(define-fun infix_lseqqtresultqtunused1 () Bool
  o3)

;; "o"
(define-fun o4 () Bool
  (and o3 o2))

;; "andb'result'unused"
(define-fun andbqtresultqtunused () Bool
  o4)

;; "H"
(assert (= o4 true))

;; "temp___loop_entry_725'unused"
(define-fun temp___loop_entry_725qtunused () map2
  cipher_input1)

;; "map__content'result'unused"
(define-fun map__contentqtresultqtunused1 () map2
  cipher_input1)

;; "temp___loop_entry_722'unused"
(define-fun temp___loop_entry_722qtunused () map1
  column)

;; "map__content'result'unused"
(define-fun map__contentqtresultqtunused2 () map1
  column)

;; "int__content'result'unused"
(define-fun int__contentqtresultqtunused2 () Int
  i)

;; "o"
(define-fun o5 () (_ BitVec 8)
  ((_ int2bv 8) i))

;; "of_int'result'unused"
(define-fun of_intqtresultqtunused () (_ BitVec 8)
  o5)

(declare-const o6 byte)

;; "Ensures"
(assert (= (to_rep o6) o5))

;; "of_rep'result'unused"
(define-fun of_repqtresultqtunused1 () byte
  o6)

;; "map__content'result'unused"
(define-fun map__contentqtresultqtunused3 () map2
  cipher_input1)

;; "o"
(define-fun o7 () map2
  (set cipher_input1 0 o6))

;; "set'result'unused"
(define-fun setqtresultqtunused1 () map2
  o7)

(declare-const cipher_input2 map2)

;; "cipher_input'unused"
(define-fun cipher_inputqtunused2 () map__ref1
  (map__refqtmk1 cipher_input2))

;; "H"
(assert (= cipher_input2 o7))

;; "int__content'result'unused"
(define-fun int__contentqtresultqtunused3 () Int
  i)

;; "o"
(define-fun o8 () Int
  (* i 16))

;; "infix *'result'unused"
(define-fun infix_asqtresultqtunused () Int
  o8)

;; "temp___710"
(define-fun temp___710 () Int
  (+ o8 15))

;; "infix +'result'unused"
(define-fun infix_plqtresultqtunused () Int
  temp___710)

;; "int__content'result'unused"
(define-fun int__contentqtresultqtunused4 () Int
  i)

;; "temp___709"
(define-fun temp___709 () Int
  (* i 16))

;; "infix *'result'unused"
(define-fun infix_asqtresultqtunused1 () Int
  temp___709)

;; "map__content'result'unused"
(define-fun map__contentqtresultqtunused4 () map1
  column)

;; "Assert"
(assert
  (=>
    (<= temp___709 temp___710)
    (and
      (and (<= 0 temp___709) (<= temp___709 63))
      (and (<= 0 temp___710) (<= temp___710 63)))))

;; "o"
(define-fun o9 () map1
  (slice column temp___709 temp___710))

;; "slice'result'unused"
(define-fun sliceqtresultqtunused () map1
  o9)

;; "temp___711"
(define-fun temp___711 () us_t
  (of_array o9 temp___709 temp___710))

;; "of_array'result'unused"
(define-fun of_arrayqtresultqtunused () us_t
  temp___711)

;; "o"
(define-fun o10 () Int
  temp___709)

;; "first'result'unused"
(define-fun firstqtresultqtunused () Int
  o10)

;; "o"
(define-fun o11 () map1
  o9)

;; "to_array'result'unused"
(define-fun to_arrayqtresultqtunused () map1
  o11)

;; "o"
(define-fun o12 () map1
  (slide o11 o10 0))

;; "slide'result'unused"
(define-fun slideqtresultqtunused () map1
  o12)

;; "temp___712"
(define-fun temp___712 () map2
  (convert o12))

;; "convert'result'unused"
(define-fun convertqtresultqtunused () map2
  temp___712)

;; "Assert"
(assert
  (ite (<= temp___709 temp___710)
    (and (<= 0 15) (= (- temp___710 temp___709) (- 15 0)))
    (< 15 0)))

;; "param__output'unused"
(define-fun param__outputqtunused () map__ref1
  (map__refqtmk1 temp___712))

;; "map__ref'mk'result'unused"
(define-fun map__refqtmkqtresultqtunused () map__ref1
  (map__refqtmk1 temp___712))

;; "int__content'result'unused"
(define-fun int__contentqtresultqtunused5 () Int
  i)

;; "temp___idx_714"
(define-fun temp___idx_714 () Int
  (* i 16))

;; "infix *'result'unused"
(define-fun infix_asqtresultqtunused2 () Int
  temp___idx_714)

;; "int__content'result'unused"
(define-fun int__contentqtresultqtunused6 () Int
  i)

;; "o"
(define-fun o13 () Int
  (* i 16))

;; "infix *'result'unused"
(define-fun infix_asqtresultqtunused3 () Int
  o13)

;; "temp___idx_715"
(define-fun temp___idx_715 () Int
  (+ o13 15))

;; "infix +'result'unused"
(define-fun infix_plqtresultqtunused1 () Int
  temp___idx_715)

;; "map__content'result'unused"
(define-fun map__contentqtresultqtunused5 () map2
  cipher_input2)

(declare-const param__output map2)

;; "param__output'unused"
(define-fun param__outputqtunused1 () map__ref1
  (map__refqtmk1 param__output))

;; "H"
(assert (has_bounds1 param__output 0 15))

;; "H"
(assert true)

;; "H"
(assert true)

;; "int__content'result'unused"
(define-fun int__contentqtresultqtunused7 () Int
  i)

;; "o"
(define-fun o14 () Int
  (* i 16))

;; "infix *'result'unused"
(define-fun infix_asqtresultqtunused4 () Int
  o14)

;; "map__content'result'unused"
(define-fun map__contentqtresultqtunused6 () map2
  param__output)

;; "temp___716"
(define-fun temp___716 () map2
  (slide1 param__output 0 o14))

;; "slide'result'unused"
(define-fun slideqtresultqtunused1 () map2
  temp___716)

;; "int__content'result'unused"
(define-fun int__contentqtresultqtunused8 () Int
  i)

;; "o"
(define-fun o15 () Int
  (* i 16))

;; "infix *'result'unused"
(define-fun infix_asqtresultqtunused5 () Int
  o15)

;; "o"
(define-fun o16 () Int
  (+ o15 15))

;; "infix +'result'unused"
(define-fun infix_plqtresultqtunused2 () Int
  o16)

;; "int__content'result'unused"
(define-fun int__contentqtresultqtunused9 () Int
  i)

;; "o"
(define-fun o17 () Int
  (* i 16))

;; "infix *'result'unused"
(define-fun infix_asqtresultqtunused6 () Int
  o17)

;; "o"
(define-fun o18 () map1
  (convert1 temp___716))

;; "convert'result'unused"
(define-fun convertqtresultqtunused1 () map1
  o18)

;; "temp___717"
(define-fun temp___717 () us_t
  (of_array o18 o17 o16))

;; "of_array'result'unused"
(define-fun of_arrayqtresultqtunused1 () us_t
  temp___717)

(declare-const usf map1)

;; "H"
(assert true)

;; "H"
(assert true)

;; "H"
(assert true)

;; "H"
(assert
  (forall ((temp___718 Int))
    (ite (and (<= temp___idx_714 temp___718) (<= temp___718 temp___idx_715))
      (= (get usf temp___718) (get o18 temp___718))
      (= (get usf temp___718) (get column temp___718)))))

;; "any'result'unused"
(define-fun anyqtresultqtunused () map1
  usf)

(declare-const column1 map1)

;; "column'unused"
(define-fun columnqtunused1 () map__ref
  (map__refqtmk column1))

;; "H"
(assert (= column1 usf))

;; "int__content'result'unused"
(define-fun int__contentqtresultqtunused10 () Int
  i)

;; "o"
(define-fun o19 () Int
  (* i 16))

;; "infix *'result'unused"
(define-fun infix_asqtresultqtunused7 () Int
  o19)

;; "temp___731"
(define-fun temp___731 () Int
  (+ o19 15))

;; "infix +'result'unused"
(define-fun infix_plqtresultqtunused3 () Int
  temp___731)

;; "map__content'result'unused"
(define-fun map__contentqtresultqtunused7 () map1
  column1)

;; "Assert"
(assert
  (=>
    (<= 0 temp___731)
    (and (and (<= 0 0) (<= 0 63)) (and (<= 0 temp___731) (<= temp___731 63)))))

;; "o"
(define-fun o20 () map1
  (slice column1 0 temp___731))

;; "slice'result'unused"
(define-fun sliceqtresultqtunused1 () map1
  o20)

;; "temp___732"
(define-fun temp___732 () us_t
  (of_array o20 0 temp___731))

;; "of_array'result'unused"
(define-fun of_arrayqtresultqtunused2 () us_t
  temp___732)

;; "_f'unused"
(define-fun usfqtunused () Bool
  (ite (forall ((temp___733 Int))
         (=>
           (and (<= 0 temp___733) (<= temp___733 temp___731))
           (= (us_attr__init (get o20 temp___733)) true)))
    true
    false))

;; "any'result'unused"
(define-fun anyqtresultqtunused1 () Bool
  (ite (forall ((temp___733 Int))
         (=>
           (and (<= 0 temp___733) (<= temp___733 temp___731))
           (= (us_attr__init (get o20 temp___733)) true)))
    true
    false))

;; "temp___739"
(define-fun temp___739 () us_t
  (let ((temp___738 (+ (* i 16) 15)))
    (of_array (slice column1 0 temp___738) 0 temp___738)))

(declare-const temp___740 Int)

;; "H"
(assert (<= (first temp___739) temp___740))

;; "H"
(assert (<= temp___740 (last temp___739)))

;; Goal "def'vc"
;; File "sparknacl-hashing-rfsb509.adb", line 37, characters 0-0
(assert
  (not (= (us_attr__init (get (to_array temp___739) temp___740)) true)))

(check-sat)
